File "./GRP408-1/SMT.v", line 6, characters 0-16:
Warning: Interpreting this declaration as if a global declaration prefixed by
"Local", i.e. as a global declaration which shall not be available without
qualification when imported. [local-declaration,vernacular,default]
File "./GRP408-1/SMT.v", line 7, characters 0-16:
Warning: Interpreting this declaration as if a global declaration prefixed by
"Local", i.e. as a global declaration which shall not be available without
qualification when imported. [local-declaration,vernacular,default]
File "./GRP408-1/SMT.v", line 8, characters 0-16:
Warning: Interpreting this declaration as if a global declaration prefixed by
"Local", i.e. as a global declaration which shall not be available without
qualification when imported. [local-declaration,vernacular,default]
File "./GRP408-1/SMT.v", line 9, characters 0-26:
Warning: Interpreting this declaration as if a global declaration prefixed by
"Local", i.e. as a global declaration which shall not be available without
qualification when imported. [local-declaration,vernacular,default]
File "./GRP408-1/SMT.v", line 10, characters 0-32:
Warning: Interpreting this declaration as if a global declaration prefixed by
"Local", i.e. as a global declaration which shall not be available without
qualification when imported. [local-declaration,vernacular,default]
veriT --proof-prune --proof-merge --proof-with-sharing --cnf-definitional --disable-ackermann --input=smtlib2 --proof=/tmp/verit_coq438775.vtlog /tmp/verit_coq438775.smt2 2> /tmp/warnings_verit2acbbc.log
veriT dev - the SMT-solver veriT (UFRN/LORIA).
success
success
success
success
success
success
success
success
unknown
success
success
Verit = 0.00008
(set-option :print-success true)
(set-option :produce-assignments true)
(set-option :produce-proofs true)
(set-logic QF_UFLIA)
(declare-fun op_0 () Int)
(declare-fun op_3 () Int)
(declare-fun op_2 (Int Int ) Int)
(declare-fun op_1 () Int)
(assert (not (= (op_2 (op_2 op_0 op_1) op_3) (op_2 op_0 (op_2 op_1 op_3)))))
(check-sat)
(get-model)
File "./GRP408-1/SMT.v", line 18, characters 2-5:
Error:
CVC4 returned sat. Here is the model:

a3 := 0
b3 := -1
multiply := fun BOUND_VARIABLE_315 BOUND_VARIABLE_316 => if BOUND_VARIABLE_315 = 2 then if BOUND_VARIABLE_316 = 1 then -2 else -3 else if BOUND_VARIABLE_315 = -1 then if BOUND_VARIABLE_316 = 1 then 3 else -3 else if BOUND_VARIABLE_315 = 0 then if BOUND_VARIABLE_316 = -1 then 2 else -3 else -3
c3 := 1

